16 32
1 2 1
1 5 5
2 3 1
2 6 1
3 4 2
3 7 3
4 8 3
5 6 5
5 9 1
6 7 2
6 10 3
7 8 5
7 11 5
8 12 3
9 10 2
9 13 1
10 11 5
10 14 4
11 12 2
11 15 3
12 16 3
13 14 3
14 15 4
15 16 5
1 13 2
2 14 5
3 15 4
4 16 2
1 4 4
5 8 2
9 12 2
13 16 2
